c turning on binary mode checking
c parsing input formula with 202048 variables and 780980 clauses
c finished parsing, read 1937041 bytes from proof file
c detected empty clause; start verification via backward checking
c 2268 of 780980 clauses in core                            
c 707 of 82800 lemmas in core using 15469 resolution steps
c 0 RAT lemmas in core; 41 redundant literals in core lemmas
s VERIFIED
c verification time: 0.695 seconds
